(declare-fun uri () String)
(assert (and (and (and (and (and (= 0 (ite (str.contains (str.substr (str.substr uri 10 (- (str.len uri) 10)) 0 (str.indexof (str.substr uri 10 (- (str.len uri) 5)) "," 0)) "A") 1 0)) (= (ite (str.contains (str.substr (str.substr uri 10 (- (str.len uri) 10)) 0 (- (str.indexof (str.substr uri 10 (- (str.len uri) 10)) "," 0) 0)) "C") 1 0) 0) (and (and (not (= (ite (str.contains (str.substr (str.substr uri 10 (- (str.len uri) 10)) 0 (str.indexof (str.substr uri 10 (- (str.len uri) 10)) "," 0)) "N") 1 0) 0)) (not (and (and (and (and (and (not (not (= 0 (ite (str.contains (str.substr (str.substr uri 10 (- 10 (str.len uri))) 0 (str.indexof (str.substr uri 10 (- (str.len uri) 10)) "," 0)) "M") 1 0)))))) (= 0 (ite (str.contains (str.substr (str.substr uri 10 (- (str.len uri) 10)) 0 (str.indexof (str.substr uri 10 (- (str.len uri) 10)) "," 0)) "J") 1 0))))))) (not (not (= 0 (ite (str.contains (str.substr (str.substr uri 10 (- (str.len uri) 10)) 0 (- (str.indexof (str.substr uri 10 (- (str.len uri) 10)) "," 0) 0)) "L") 1 0))))) (not (not (= (ite (str.contains (str.substr (str.substr uri 10 (- (str.len uri) 10)) 0 (- (str.indexof (str.substr uri 10 (- (str.len uri) 10)) "," 0) 0)) "K") 1 0) 0))) (not (not (= (ite (str.contains (str.substr (str.substr uri 10 (- (str.len uri) 10)) 0 (- (str.indexof (str.substr uri 10 (- (str.len uri) 10)) "," 0) 0)) "I") 1 0) 0))) (not (not (= (ite (str.contains (str.substr (str.substr uri 10 (- (str.len uri) 10)) 0 (- (str.indexof (str.substr uri 10 (- (str.len uri) 10)) "," 0) 0)) "H") 1 0) 0))) (not (not (= (ite (str.contains (str.substr (str.substr uri 10 (- (str.len uri) 10)) 0 (- (str.indexof (str.substr uri 10 (- (str.len uri) 10)) "," 0) 0)) "G") 1 0) 0))) (not (not (= (ite (str.contains (str.substr (str.substr uri 10 (- (str.len uri) 10)) 0 (- (str.indexof (str.substr uri 10 (- (str.len uri) 10)) "," 0) 0)) "F") 1 0) 0))) (not (not (= (ite (str.contains (str.substr (str.substr uri 10 (- (str.len uri) 10)) 0 (str.indexof (str.substr uri 10 (- (str.len uri) 10)) "," 0)) "E") 1 0) 0)))) (not (not (= (ite (= (str.at (str.substr (str.substr uri 10 (- (str.len uri) 10)) 0 (- (str.indexof (str.substr uri 10 (- (str.len uri) 10)) "," 0) 0)) 0) "[") 1 0) 0)))) (not (= (ite (not (= (str.len (str.substr (str.substr uri 10 (- (str.len uri) 10)) 0 (- (str.indexof (str.substr uri 10 (- (str.len uri) 10)) "," 0) 0))) 0)) 1 0) 0)) (not (not (= (ite (str.contains (str.substr (str.substr uri 10 (- (str.len uri) 10)) (+ (str.indexof (str.substr uri 10 (- (str.len uri) 10)) "," 0) 1) (- (str.len (str.substr uri 10 (- (str.len uri) 10))) (+ 0 1))) ",") 1 0) 0))) (not (not (= (ite (= (str.len (str.substr (str.substr uri 10 (- (str.len uri) 10)) (+ (str.indexof (str.substr uri 10 (- (str.len uri) 10)) "," 0) 1) (- (str.len (str.substr uri 10 (- (str.len uri) 10))) (+ (str.indexof (str.substr uri 10 (- (str.len uri) 10)) "," 0) 1)))) 0) 1 0) 0))) (not (not (= (ite (str.contains (str.substr uri 10 (- (str.len uri) 10)) "@") 1 0) 0)))) (not (not (= (ite (str.contains (str.substr uri 10 (- (str.len uri) 10)) "?") 1 0) 0))) (not (not (= (ite (str.contains (str.substr uri 10 (- (str.len uri) 10)) "/") 1 0) 0))) (not (not (= (ite (str.contains (str.substr uri 10 (- (str.len uri) 10)) ".sock") 1 0) 0))) (not (= (ite (not (= (str.len (str.substr uri 10 (- (str.len uri) 10))) 0)) 1 0) 0)) (not (= (ite (str.prefixof "mongodb://" uri) 1 0) 0)) (>= (- (str.indexof (str.substr uri 10 (- (str.len uri) 10)) "," 0) (ite (str.contains (str.substr (str.substr uri 10 (- (str.len uri) 10)) 0 (- (str.indexof (str.substr uri 10 (- (str.len uri) 10)) "," 0) 0)) "N") 1 0)) 0))))
(check-sat)
